c description: Graph pigeonhole principle formula on fast_gnp_random_graph(10,25,0.9)
c generator: CNFgen (0.9.0)
c copyright: (C) 2012-2020 Massimo Lauria <massimo.lauria@uniroma1.it>
c url: https://massimolauria.net/cnfgen
c
p cnf 226 929
1 2 3 4 5 6 7 8 9 10 11 12 13 14 15 16 17 18 19 20 21 22 23 24 0
25 26 27 28 29 30 31 32 33 34 35 36 37 38 39 40 41 42 43 44 45 0
46 47 48 49 50 51 52 53 54 55 56 57 58 59 60 61 62 63 64 65 66 67 68 69 0
70 71 72 73 74 75 76 77 78 79 80 81 82 83 84 85 86 87 88 89 0
90 91 92 93 94 95 96 97 98 99 100 101 102 103 104 105 106 107 108 109 110 111 112 113 0
114 115 116 117 118 119 120 121 122 123 124 125 126 127 128 129 130 131 132 133 134 0
135 136 137 138 139 140 141 142 143 144 145 146 147 148 149 150 151 152 153 154 155 156 157 0
158 159 160 161 162 163 164 165 166 167 168 169 170 171 172 173 174 175 176 177 178 179 180 181 0
182 183 184 185 186 187 188 189 190 191 192 193 194 195 196 197 198 199 200 201 202 203 0
204 205 206 207 208 209 210 211 212 213 214 215 216 217 218 219 220 221 222 223 224 225 226 0
-1 -25 0
-1 -46 0
-1 -70 0
-1 -90 0
-1 -135 0
-1 -158 0
-1 -182 0
-1 -204 0
-25 -46 0
-25 -70 0
-25 -90 0
-25 -135 0
-25 -158 0
-25 -182 0
-25 -204 0
-46 -70 0
-46 -90 0
-46 -135 0
-46 -158 0
-46 -182 0
-46 -204 0
-70 -90 0
-70 -135 0
-70 -158 0
-70 -182 0
-70 -204 0
-90 -135 0
-90 -158 0
-90 -182 0
-90 -204 0
-135 -158 0
-135 -182 0
-135 -204 0
-158 -182 0
-158 -204 0
-182 -204 0
-2 -26 0
-2 -47 0
-2 -71 0
-2 -136 0
-2 -159 0
-2 -183 0
-2 -205 0
-26 -47 0
-26 -71 0
-26 -136 0
-26 -159 0
-26 -183 0
-26 -205 0
-47 -71 0
-47 -136 0
-47 -159 0
-47 -183 0
-47 -205 0
-71 -136 0
-71 -159 0
-71 -183 0
-71 -205 0
-136 -159 0
-136 -183 0
-136 -205 0
-159 -183 0
-159 -205 0
-183 -205 0
-3 -27 0
-3 -48 0
-3 -72 0
-3 -91 0
-3 -114 0
-3 -137 0
-3 -160 0
-3 -206 0
-27 -48 0
-27 -72 0
-27 -91 0
-27 -114 0
-27 -137 0
-27 -160 0
-27 -206 0
-48 -72 0
-48 -91 0
-48 -114 0
-48 -137 0
-48 -160 0
-48 -206 0
-72 -91 0
-72 -114 0
-72 -137 0
-72 -160 0
-72 -206 0
-91 -114 0
-91 -137 0
-91 -160 0
-91 -206 0
-114 -137 0
-114 -160 0
-114 -206 0
-137 -160 0
-137 -206 0
-160 -206 0
-4 -28 0
-4 -49 0
-4 -73 0
-4 -92 0
-4 -115 0
-4 -138 0
-4 -161 0
-4 -184 0
-4 -207 0
-28 -49 0
-28 -73 0
-28 -92 0
-28 -115 0
-28 -138 0
-28 -161 0
-28 -184 0
-28 -207 0
-49 -73 0
-49 -92 0
-49 -115 0
-49 -138 0
-49 -161 0
-49 -184 0
-49 -207 0
-73 -92 0
-73 -115 0
-73 -138 0
-73 -161 0
-73 -184 0
-73 -207 0
-92 -115 0
-92 -138 0
-92 -161 0
-92 -184 0
-92 -207 0
-115 -138 0
-115 -161 0
-115 -184 0
-115 -207 0
-138 -161 0
-138 -184 0
-138 -207 0
-161 -184 0
-161 -207 0
-184 -207 0
-5 -29 0
-5 -50 0
-5 -74 0
-5 -93 0
-5 -116 0
-5 -139 0
-5 -162 0
-5 -185 0
-5 -208 0
-29 -50 0
-29 -74 0
-29 -93 0
-29 -116 0
-29 -139 0
-29 -162 0
-29 -185 0
-29 -208 0
-50 -74 0
-50 -93 0
-50 -116 0
-50 -139 0
-50 -162 0
-50 -185 0
-50 -208 0
-74 -93 0
-74 -116 0
-74 -139 0
-74 -162 0
-74 -185 0
-74 -208 0
-93 -116 0
-93 -139 0
-93 -162 0
-93 -185 0
-93 -208 0
-116 -139 0
-116 -162 0
-116 -185 0
-116 -208 0
-139 -162 0
-139 -185 0
-139 -208 0
-162 -185 0
-162 -208 0
-185 -208 0
-6 -30 0
-6 -51 0
-6 -94 0
-6 -117 0
-6 -140 0
-6 -163 0
-6 -186 0
-30 -51 0
-30 -94 0
-30 -117 0
-30 -140 0
-30 -163 0
-30 -186 0
-51 -94 0
-51 -117 0
-51 -140 0
-51 -163 0
-51 -186 0
-94 -117 0
-94 -140 0
-94 -163 0
-94 -186 0
-117 -140 0
-117 -163 0
-117 -186 0
-140 -163 0
-140 -186 0
-163 -186 0
-7 -31 0
-7 -75 0
-7 -95 0
-7 -118 0
-7 -141 0
-7 -164 0
-7 -187 0
-7 -209 0
-31 -75 0
-31 -95 0
-31 -118 0
-31 -141 0
-31 -164 0
-31 -187 0
-31 -209 0
-75 -95 0
-75 -118 0
-75 -141 0
-75 -164 0
-75 -187 0
-75 -209 0
-95 -118 0
-95 -141 0
-95 -164 0
-95 -187 0
-95 -209 0
-118 -141 0
-118 -164 0
-118 -187 0
-118 -209 0
-141 -164 0
-141 -187 0
-141 -209 0
-164 -187 0
-164 -209 0
-187 -209 0
-8 -32 0
-8 -52 0
-8 -76 0
-8 -96 0
-8 -119 0
-8 -142 0
-8 -165 0
-8 -210 0
-32 -52 0
-32 -76 0
-32 -96 0
-32 -119 0
-32 -142 0
-32 -165 0
-32 -210 0
-52 -76 0
-52 -96 0
-52 -119 0
-52 -142 0
-52 -165 0
-52 -210 0
-76 -96 0
-76 -119 0
-76 -142 0
-76 -165 0
-76 -210 0
-96 -119 0
-96 -142 0
-96 -165 0
-96 -210 0
-119 -142 0
-119 -165 0
-119 -210 0
-142 -165 0
-142 -210 0
-165 -210 0
-9 -33 0
-9 -53 0
-9 -77 0
-9 -97 0
-9 -120 0
-9 -143 0
-9 -166 0
-9 -188 0
-9 -211 0
-33 -53 0
-33 -77 0
-33 -97 0
-33 -120 0
-33 -143 0
-33 -166 0
-33 -188 0
-33 -211 0
-53 -77 0
-53 -97 0
-53 -120 0
-53 -143 0
-53 -166 0
-53 -188 0
-53 -211 0
-77 -97 0
-77 -120 0
-77 -143 0
-77 -166 0
-77 -188 0
-77 -211 0
-97 -120 0
-97 -143 0
-97 -166 0
-97 -188 0
-97 -211 0
-120 -143 0
-120 -166 0
-120 -188 0
-120 -211 0
-143 -166 0
-143 -188 0
-143 -211 0
-166 -188 0
-166 -211 0
-188 -211 0
-10 -34 0
-10 -54 0
-10 -78 0
-10 -98 0
-10 -121 0
-10 -144 0
-10 -167 0
-10 -189 0
-10 -212 0
-34 -54 0
-34 -78 0
-34 -98 0
-34 -121 0
-34 -144 0
-34 -167 0
-34 -189 0
-34 -212 0
-54 -78 0
-54 -98 0
-54 -121 0
-54 -144 0
-54 -167 0
-54 -189 0
-54 -212 0
-78 -98 0
-78 -121 0
-78 -144 0
-78 -167 0
-78 -189 0
-78 -212 0
-98 -121 0
-98 -144 0
-98 -167 0
-98 -189 0
-98 -212 0
-121 -144 0
-121 -167 0
-121 -189 0
-121 -212 0
-144 -167 0
-144 -189 0
-144 -212 0
-167 -189 0
-167 -212 0
-189 -212 0
-11 -55 0
-11 -99 0
-11 -145 0
-11 -168 0
-11 -190 0
-11 -213 0
-55 -99 0
-55 -145 0
-55 -168 0
-55 -190 0
-55 -213 0
-99 -145 0
-99 -168 0
-99 -190 0
-99 -213 0
-145 -168 0
-145 -190 0
-145 -213 0
-168 -190 0
-168 -213 0
-190 -213 0
-12 -35 0
-12 -56 0
-12 -100 0
-12 -122 0
-12 -146 0
-12 -169 0
-12 -191 0
-12 -214 0
-35 -56 0
-35 -100 0
-35 -122 0
-35 -146 0
-35 -169 0
-35 -191 0
-35 -214 0
-56 -100 0
-56 -122 0
-56 -146 0
-56 -169 0
-56 -191 0
-56 -214 0
-100 -122 0
-100 -146 0
-100 -169 0
-100 -191 0
-100 -214 0
-122 -146 0
-122 -169 0
-122 -191 0
-122 -214 0
-146 -169 0
-146 -191 0
-146 -214 0
-169 -191 0
-169 -214 0
-191 -214 0
-13 -57 0
-13 -79 0
-13 -101 0
-13 -123 0
-13 -147 0
-13 -170 0
-13 -215 0
-57 -79 0
-57 -101 0
-57 -123 0
-57 -147 0
-57 -170 0
-57 -215 0
-79 -101 0
-79 -123 0
-79 -147 0
-79 -170 0
-79 -215 0
-101 -123 0
-101 -147 0
-101 -170 0
-101 -215 0
-123 -147 0
-123 -170 0
-123 -215 0
-147 -170 0
-147 -215 0
-170 -215 0
-14 -36 0
-14 -58 0
-14 -80 0
-14 -102 0
-14 -124 0
-14 -148 0
-14 -171 0
-14 -192 0
-14 -216 0
-36 -58 0
-36 -80 0
-36 -102 0
-36 -124 0
-36 -148 0
-36 -171 0
-36 -192 0
-36 -216 0
-58 -80 0
-58 -102 0
-58 -124 0
-58 -148 0
-58 -171 0
-58 -192 0
-58 -216 0
-80 -102 0
-80 -124 0
-80 -148 0
-80 -171 0
-80 -192 0
-80 -216 0
-102 -124 0
-102 -148 0
-102 -171 0
-102 -192 0
-102 -216 0
-124 -148 0
-124 -171 0
-124 -192 0
-124 -216 0
-148 -171 0
-148 -192 0
-148 -216 0
-171 -192 0
-171 -216 0
-192 -216 0
-15 -37 0
-15 -59 0
-15 -81 0
-15 -103 0
-15 -125 0
-15 -149 0
-15 -172 0
-15 -193 0
-15 -217 0
-37 -59 0
-37 -81 0
-37 -103 0
-37 -125 0
-37 -149 0
-37 -172 0
-37 -193 0
-37 -217 0
-59 -81 0
-59 -103 0
-59 -125 0
-59 -149 0
-59 -172 0
-59 -193 0
-59 -217 0
-81 -103 0
-81 -125 0
-81 -149 0
-81 -172 0
-81 -193 0
-81 -217 0
-103 -125 0
-103 -149 0
-103 -172 0
-103 -193 0
-103 -217 0
-125 -149 0
-125 -172 0
-125 -193 0
-125 -217 0
-149 -172 0
-149 -193 0
-149 -217 0
-172 -193 0
-172 -217 0
-193 -217 0
-16 -38 0
-16 -60 0
-16 -82 0
-16 -104 0
-16 -126 0
-16 -150 0
-16 -173 0
-16 -194 0
-38 -60 0
-38 -82 0
-38 -104 0
-38 -126 0
-38 -150 0
-38 -173 0
-38 -194 0
-60 -82 0
-60 -104 0
-60 -126 0
-60 -150 0
-60 -173 0
-60 -194 0
-82 -104 0
-82 -126 0
-82 -150 0
-82 -173 0
-82 -194 0
-104 -126 0
-104 -150 0
-104 -173 0
-104 -194 0
-126 -150 0
-126 -173 0
-126 -194 0
-150 -173 0
-150 -194 0
-173 -194 0
-17 -39 0
-17 -61 0
-17 -83 0
-17 -105 0
-17 -151 0
-17 -174 0
-17 -195 0
-17 -218 0
-39 -61 0
-39 -83 0
-39 -105 0
-39 -151 0
-39 -174 0
-39 -195 0
-39 -218 0
-61 -83 0
-61 -105 0
-61 -151 0
-61 -174 0
-61 -195 0
-61 -218 0
-83 -105 0
-83 -151 0
-83 -174 0
-83 -195 0
-83 -218 0
-105 -151 0
-105 -174 0
-105 -195 0
-105 -218 0
-151 -174 0
-151 -195 0
-151 -218 0
-174 -195 0
-174 -218 0
-195 -218 0
-18 -40 0
-18 -62 0
-18 -106 0
-18 -127 0
-18 -152 0
-18 -175 0
-18 -196 0
-18 -219 0
-40 -62 0
-40 -106 0
-40 -127 0
-40 -152 0
-40 -175 0
-40 -196 0
-40 -219 0
-62 -106 0
-62 -127 0
-62 -152 0
-62 -175 0
-62 -196 0
-62 -219 0
-106 -127 0
-106 -152 0
-106 -175 0
-106 -196 0
-106 -219 0
-127 -152 0
-127 -175 0
-127 -196 0
-127 -219 0
-152 -175 0
-152 -196 0
-152 -219 0
-175 -196 0
-175 -219 0
-196 -219 0
-19 -41 0
-19 -63 0
-19 -84 0
-19 -107 0
-19 -128 0
-19 -176 0
-19 -197 0
-19 -220 0
-41 -63 0
-41 -84 0
-41 -107 0
-41 -128 0
-41 -176 0
-41 -197 0
-41 -220 0
-63 -84 0
-63 -107 0
-63 -128 0
-63 -176 0
-63 -197 0
-63 -220 0
-84 -107 0
-84 -128 0
-84 -176 0
-84 -197 0
-84 -220 0
-107 -128 0
-107 -176 0
-107 -197 0
-107 -220 0
-128 -176 0
-128 -197 0
-128 -220 0
-176 -197 0
-176 -220 0
-197 -220 0
-20 -42 0
-20 -64 0
-20 -85 0
-20 -108 0
-20 -129 0
-20 -153 0
-20 -177 0
-20 -198 0
-20 -221 0
-42 -64 0
-42 -85 0
-42 -108 0
-42 -129 0
-42 -153 0
-42 -177 0
-42 -198 0
-42 -221 0
-64 -85 0
-64 -108 0
-64 -129 0
-64 -153 0
-64 -177 0
-64 -198 0
-64 -221 0
-85 -108 0
-85 -129 0
-85 -153 0
-85 -177 0
-85 -198 0
-85 -221 0
-108 -129 0
-108 -153 0
-108 -177 0
-108 -198 0
-108 -221 0
-129 -153 0
-129 -177 0
-129 -198 0
-129 -221 0
-153 -177 0
-153 -198 0
-153 -221 0
-177 -198 0
-177 -221 0
-198 -221 0
-65 -86 0
-65 -109 0
-65 -130 0
-65 -178 0
-65 -199 0
-65 -222 0
-86 -109 0
-86 -130 0
-86 -178 0
-86 -199 0
-86 -222 0
-109 -130 0
-109 -178 0
-109 -199 0
-109 -222 0
-130 -178 0
-130 -199 0
-130 -222 0
-178 -199 0
-178 -222 0
-199 -222 0
-21 -43 0
-21 -66 0
-21 -87 0
-21 -110 0
-21 -131 0
-21 -154 0
-21 -179 0
-21 -200 0
-21 -223 0
-43 -66 0
-43 -87 0
-43 -110 0
-43 -131 0
-43 -154 0
-43 -179 0
-43 -200 0
-43 -223 0
-66 -87 0
-66 -110 0
-66 -131 0
-66 -154 0
-66 -179 0
-66 -200 0
-66 -223 0
-87 -110 0
-87 -131 0
-87 -154 0
-87 -179 0
-87 -200 0
-87 -223 0
-110 -131 0
-110 -154 0
-110 -179 0
-110 -200 0
-110 -223 0
-131 -154 0
-131 -179 0
-131 -200 0
-131 -223 0
-154 -179 0
-154 -200 0
-154 -223 0
-179 -200 0
-179 -223 0
-200 -223 0
-22 -44 0
-22 -67 0
-22 -88 0
-22 -111 0
-22 -132 0
-22 -155 0
-22 -201 0
-22 -224 0
-44 -67 0
-44 -88 0
-44 -111 0
-44 -132 0
-44 -155 0
-44 -201 0
-44 -224 0
-67 -88 0
-67 -111 0
-67 -132 0
-67 -155 0
-67 -201 0
-67 -224 0
-88 -111 0
-88 -132 0
-88 -155 0
-88 -201 0
-88 -224 0
-111 -132 0
-111 -155 0
-111 -201 0
-111 -224 0
-132 -155 0
-132 -201 0
-132 -224 0
-155 -201 0
-155 -224 0
-201 -224 0
-23 -45 0
-23 -68 0
-23 -89 0
-23 -112 0
-23 -133 0
-23 -156 0
-23 -180 0
-23 -202 0
-23 -225 0
-45 -68 0
-45 -89 0
-45 -112 0
-45 -133 0
-45 -156 0
-45 -180 0
-45 -202 0
-45 -225 0
-68 -89 0
-68 -112 0
-68 -133 0
-68 -156 0
-68 -180 0
-68 -202 0
-68 -225 0
-89 -112 0
-89 -133 0
-89 -156 0
-89 -180 0
-89 -202 0
-89 -225 0
-112 -133 0
-112 -156 0
-112 -180 0
-112 -202 0
-112 -225 0
-133 -156 0
-133 -180 0
-133 -202 0
-133 -225 0
-156 -180 0
-156 -202 0
-156 -225 0
-180 -202 0
-180 -225 0
-202 -225 0
-24 -69 0
-24 -113 0
-24 -134 0
-24 -157 0
-24 -181 0
-24 -203 0
-24 -226 0
-69 -113 0
-69 -134 0
-69 -157 0
-69 -181 0
-69 -203 0
-69 -226 0
-113 -134 0
-113 -157 0
-113 -181 0
-113 -203 0
-113 -226 0
-134 -157 0
-134 -181 0
-134 -203 0
-134 -226 0
-157 -181 0
-157 -203 0
-157 -226 0
-181 -203 0
-181 -226 0
-203 -226 0